12° run output:
{
    "Function": "ClusterB300.tsp",
    "Problem dimension": [
        185,
        141,
        133,
        218,
        195,
        285,
        99,
        92,
        163,
        122,
        23,
        220,
        248,
        172,
        171,
        26,
        97,
        292,
        38,
        180,
        29,
        72,
        209,
        85,
        74,
        124,
        164,
        265,
        53,
        198,
        287,
        281,
        231,
        57,
        274,
        290,
        127,
        182,
        60,
        181,
        44,
        160,
        286,
        40,
        252,
        245,
        203,
        106,
        65,
        233,
        152,
        112,
        175,
        79,
        139,
        142,
        12,
        238,
        108,
        7,
        77,
        221,
        251,
        269,
        96,
        234,
        283,
        262,
        197,
        173,
        148,
        276,
        109,
        249,
        13,
        15,
        147,
        170,
        212,
        282,
        80,
        22,
        91,
        37,
        288,
        200,
        114,
        263,
        82,
        224,
        242,
        101,
        143,
        43,
        49,
        54,
        19,
        295,
        216,
        201,
        30,
        113,
        100,
        52,
        237,
        2,
        36,
        154,
        34,
        66,
        235,
        261,
        17,
        16,
        202,
        293,
        31,
        156,
        55,
        187,
        215,
        107,
        117,
        45,
        63,
        78,
        131,
        270,
        28,
        179,
        119,
        9,
        298,
        46,
        84,
        205,
        125,
        138,
        20,
        86,
        166,
        116,
        257,
        177,
        278,
        81,
        14,
        1,
        67,
        5,
        279,
        194,
        267,
        68,
        83,
        149,
        168,
        150,
        199,
        228,
        273,
        158,
        103,
        272,
        48,
        115,
        192,
        95,
        111,
        93,
        129,
        73,
        98,
        239,
        11,
        211,
        42,
        250,
        157,
        76,
        136,
        214,
        70,
        59,
        294,
        21,
        284,
        226,
        193,
        25,
        104,
        222,
        110,
        134,
        162,
        58,
        183,
        137,
        227,
        10,
        264,
        232,
        268,
        161,
        32,
        4,
        33,
        196,
        190,
        88,
        174,
        188,
        219,
        240,
        153,
        244,
        39,
        132,
        206,
        208,
        271,
        247,
        128,
        217,
        146,
        130,
        291,
        246,
        289,
        186,
        296,
        6,
        27,
        51,
        225,
        140,
        105,
        253,
        89,
        210,
        204,
        102,
        223,
        165,
        56,
        167,
        62,
        151,
        3,
        258,
        297,
        277,
        69,
        184,
        169,
        266,
        159,
        275,
        255,
        94,
        50,
        47,
        118,
        145,
        18,
        191,
        87,
        123,
        178,
        35,
        144,
        259,
        189,
        207,
        90,
        241,
        254,
        64,
        155,
        243,
        120,
        280,
        230,
        121,
        41,
        260,
        299,
        0,
        75,
        236,
        176,
        8,
        126,
        24,
        61,
        135,
        229,
        213,
        71,
        256
    ],
    "Global Optimum": 0,
    "Algorithm": "Genetic algorithm",
    "Parameters": {
        "population": 30,
        "offspring": 30,
        "mutation probability": 0.0033333333333333335,
        "crossover probability": 0.9
    },
    "Fitness": 295151,
    "Solution": [
        185,
        141,
        133,
        218,
        195,
        285,
        99,
        92,
        163,
        122,
        23,
        220,
        248,
        172,
        171,
        26,
        97,
        292,
        38,
        180,
        29,
        72,
        209,
        85,
        74,
        124,
        164,
        265,
        53,
        198,
        287,
        281,
        231,
        57,
        274,
        290,
        127,
        182,
        60,
        181,
        44,
        160,
        286,
        40,
        252,
        245,
        203,
        106,
        65,
        233,
        152,
        112,
        175,
        79,
        139,
        142,
        12,
        238,
        108,
        7,
        77,
        221,
        251,
        269,
        96,
        234,
        283,
        262,
        197,
        173,
        148,
        276,
        109,
        249,
        13,
        15,
        147,
        170,
        212,
        282,
        80,
        22,
        91,
        37,
        288,
        200,
        114,
        263,
        82,
        224,
        242,
        101,
        143,
        43,
        49,
        54,
        19,
        295,
        216,
        201,
        30,
        113,
        100,
        52,
        237,
        2,
        36,
        154,
        34,
        66,
        235,
        261,
        17,
        16,
        202,
        293,
        31,
        156,
        55,
        187,
        215,
        107,
        117,
        45,
        63,
        78,
        131,
        270,
        28,
        179,
        119,
        9,
        298,
        46,
        84,
        205,
        125,
        138,
        20,
        86,
        166,
        116,
        257,
        177,
        278,
        81,
        14,
        1,
        67,
        5,
        279,
        194,
        267,
        68,
        83,
        149,
        168,
        150,
        199,
        228,
        273,
        158,
        103,
        272,
        48,
        115,
        192,
        95,
        111,
        93,
        129,
        73,
        98,
        239,
        11,
        211,
        42,
        250,
        157,
        76,
        136,
        214,
        70,
        59,
        294,
        21,
        284,
        226,
        193,
        25,
        104,
        222,
        110,
        134,
        162,
        58,
        183,
        137,
        227,
        10,
        264,
        232,
        268,
        161,
        32,
        4,
        33,
        196,
        190,
        88,
        174,
        188,
        219,
        240,
        153,
        244,
        39,
        132,
        206,
        208,
        271,
        247,
        128,
        217,
        146,
        130,
        291,
        246,
        289,
        186,
        296,
        6,
        27,
        51,
        225,
        140,
        105,
        253,
        89,
        210,
        204,
        102,
        223,
        165,
        56,
        167,
        62,
        151,
        3,
        258,
        297,
        277,
        69,
        184,
        169,
        266,
        159,
        275,
        255,
        94,
        50,
        47,
        118,
        145,
        18,
        191,
        87,
        123,
        178,
        35,
        144,
        259,
        189,
        207,
        90,
        241,
        254,
        64,
        155,
        243,
        120,
        280,
        230,
        121,
        41,
        260,
        299,
        0,
        75,
        236,
        176,
        8,
        126,
        24,
        61,
        135,
        229,
        213,
        71,
        256
    ],
    "Nb of functions evaluations": 200010,
    "Computational time in seconds": 369.5635414123535,
    "Stopping criterion in evaluations": 200000
}